100 5
25 1000
20
30
10
40
20
20
20
10
20
30
40
20
10
10
20
20
20
20
40
10
10
40
30
10
20
30
20
10
10
10
20
10
10
30
20
40
10
30
10
30
20
10
20
10
10
10
10
10
10
30
19
3
5
16
16
19
23
20
19
17
9
3
6
17
16
16
9
21
27
23
14
8
5
8
16
31
7
27
30
13
10
9
14
18
2
28
13
19
25
6
13
14
3
23
6
26
35
9
15
3
40 50 0 960 0 0
25 85 388 911 10 2
22 75 30 546 10 1
22 85 353 708 10 3
20 80 425 913 10 1
20 85 40 630 10 3
18 75 228 667 10 2
15 75 161 558 10 3
15 80 229 624 10 2
10 35 213 648 10 3
10 40 404 753 10 2
8 40 33 511 10 2
8 45 46 519 10 1
5 35 395 911 10 1
5 45 35 697 10 3
2 40 39 528 10 3
0 40 94 535 10 1
0 45 394 909 10 2
44 5 218 571 10 3
42 10 85 542 10 2
42 15 391 802 10 1
40 5 45 517 10 3
40 15 229 640 10 2
38 5 45 523 10 1
38 15 389 914 10 1
35 5 386 904 10 1
95 30 389 788 10 3
95 35 57 600 10 3
92 30 55 575 10 3
90 35 52 536 10 3
88 30 90 521 10 2
88 35 50 534 10 3
87 30 425 898 10 2
85 25 51 602 10 2
85 35 342 751 10 1
67 85 410 905 10 3
65 85 43 617 10 1
65 82 410 823 10 1
62 80 114 561 10 1
60 80 36 658 10 1
60 85 191 586 10 1
58 75 201 670 10 3
55 80 33 568 10 2
55 85 429 838 10 1
55 82 49 504 10 2
20 82 37 597 10 2
18 80 315 782 10 3
2 45 38 606 10 1
42 5 396 904 10 1
42 12 341 658 10 1
72 35 351 782 10 1
55 20 161 610 10 1
25 30 25 516 10 3
20 50 239 630 10 2
55 60 448 873 10 3
30 60 420 897 10 2
50 35 390 843 10 3
30 25 227 686 10 1
15 10 401 902 10 1
10 20 42 706 10 3
15 60 401 923 10 1
45 65 110 525 10 1
65 35 29 548 10 2
65 20 39 593 10 3
45 30 20 498 10 3
35 40 11 530 10 3
41 37 404 847 10 2
64 42 100 555 10 2
40 60 436 907 10 2
31 52 9 510 10 2
35 69 330 930 10 2
65 55 81 520 10 2
63 65 27 622 10 3
2 60 135 556 10 2
20 20 430 913 10 3
5 5 63 520 10 3
60 12 125 530 10 1
23 3 390 900 10 1
8 56 190 659 10 1
6 68 215 608 10 2
47 47 444 942 10 3
49 58 249 580 10 3
27 43 14 506 10 1
37 31 19 566 10 1
57 29 259 650 10 2
63 23 198 609 10 2
21 24 212 605 10 3
12 24 272 565 10 3
24 58 90 549 10 1
67 5 325 897 10 2
37 47 204 633 10 2
49 42 442 937 10 2
53 43 14 581 10 2
61 52 373 928 10 1
57 48 265 638 10 1
56 37 20 539 10 2
55 54 418 825 10 1
4 18 426 787 10 2
26 52 14 499 10 2
26 35 149 586 10 3
31 67 356 930 10 3
74 41 0 960 5 4
25 53 0 960 5 4
38 27 0 960 5 4
0 69 0 960 5 4
34 14 0 960 5 4
0 0 0 1 0
0 0 0 0 0
0 0 0 1 0
0 0 0 0 0
0 0 0 1 0
0 0 0 1 0
0 0 0 1 0
0 0 0 1 0
0 1 0 0 0
0 1 0 0 0
0 1 0 0 0
0 0 0 0 0
0 0 0 0 0
0 1 0 0 0
0 1 0 0 0
0 0 0 0 0
0 0 0 1 0
0 0 0 0 1
0 0 0 0 1
0 0 0 0 0
0 0 0 0 1
0 0 0 0 1
0 0 0 0 0
0 0 0 0 0
0 0 0 0 0
1 0 0 0 0
1 0 0 0 0
1 0 0 0 0
1 0 0 0 0
1 0 0 0 0
1 0 0 0 0
1 0 0 0 0
1 0 0 0 0
0 0 0 0 0
1 0 0 0 0
0 0 0 0 0
0 0 0 0 0
0 0 0 0 0
0 0 0 0 0
0 0 0 0 0
1 0 0 0 0
0 1 0 0 0
0 0 0 0 0
0 1 0 0 0
0 0 0 1 0
0 0 0 1 0
0 0 0 0 0
0 0 0 0 0
0 0 0 0 0
0 0 0 0 0
0 0 0 0 0
0 0 1 0 0
0 1 0 0 0
1 0 0 0 0
0 1 0 0 0
0 0 1 0 0
0 0 0 0 0
0 0 0 0 0
0 0 0 0 1
0 0 0 0 0
0 0 0 0 0
1 0 0 0 0
1 0 0 0 0
0 0 1 0 0
0 0 1 0 0
0 0 1 0 0
1 0 0 0 0
0 1 0 0 0
0 1 0 0 0
0 1 0 0 0
1 0 0 0 0
1 0 0 0 0
0 0 0 1 0
0 0 0 0 1
0 0 0 0 1
0 0 0 0 0
0 0 0 0 0
0 0 0 0 0
0 0 0 1 0
0 0 1 0 0
0 1 0 0 0
0 0 0 0 0
0 0 0 0 0
0 0 1 0 0
1 0 0 0 0
0 0 0 0 1
0 0 0 0 1
0 0 0 0 0
0 0 0 0 1
0 1 0 0 0
0 0 1 0 0
1 0 0 0 0
0 0 0 0 0
0 0 0 0 0
1 0 0 0 0
0 0 0 0 0
0 0 0 0 1
0 1 0 0 0
0 0 1 0 0
0 1 0 0 0
